NPROCS=0
This instance is clustered!
Gurobi Optimizer version 9.0.0 build v9.0.0rc2 (linux64)
Optimize a model with 24 rows, 145 columns and 288 nonzeros
Model fingerprint: 0xac18a529
Variable types: 1 continuous, 144 integer (144 binary)
Coefficient statistics:
  Matrix range     [1e+00, 1e+00]
  Objective range  [1e+00, 1e+02]
  Bounds range     [1e+00, 1e+00]
  RHS range        [1e+00, 1e+00]
Presolve removed 2 rows and 33 columns
Presolve time: 0.00s
Presolved: 22 rows, 112 columns, 222 nonzeros
Variable types: 1 continuous, 111 integer (111 binary)

Root relaxation: objective 1.365758e+02, 18 iterations, 0.00 seconds

    Nodes    |    Current Node    |     Objective Bounds      |     Work
 Expl Unexpl |  Obj  Depth IntInf | Incumbent    BestBd   Gap | It/Node Time

     0     0  154.69541    0   12          -  154.69541      -     -    0s
 done with super cut 0
 done with super cut 1
H    0     0                     299.2203703  154.69541  48.3%     -    0s
 done with super cut 2
     0     0  178.06554    0   20  299.22037  178.06554  40.5%     -    0s
 done with super cut 3
 done with super cut 4
H    0     0                     272.7299913  178.06554  34.7%     -    0s
     0     0  178.24885    0   24  272.72999  178.24885  34.6%     -    0s
 done with super cut 5
 done with super cut 6
 done with super cut 7
H    0     0                     264.4711772  178.24885  32.6%     -    0s
 done with super cut 8
 done with super cut 9
 done with super cut 10
H    0     0                     253.2769535  178.24885  29.6%     -    2s
     0     2  183.65641    0   25  253.27695  183.65641  27.5%     -    2s
*  628   244              15     253.1520304  203.87652  19.5%   5.3    2s
* 1537   421              15     246.4383561  222.17049  9.85%   4.9    2s

Cutting planes:
  Gomory: 1
  Lazy constraints: 195

Explored 2580 nodes (13526 simplex iterations) in 2.58 seconds
Thread count was 12 (of 12 available processors)

Solution count 6: 246.438 253.152 253.277 ... 299.22

Optimal solution found (tolerance 1.00e-04)
Best objective 2.464383560785e+02, best bound 2.464383560785e+02, gap 0.0000%

User-callback calls 5602, time in user-callback 2.32 sec
/projects/academic/josewalt/caigao/RRARP_BD/BendersDecomp/ret/model_outs/n_10_h_4_algo_4.out
 =====>>>>> Solution is written to file in <../ret/model_outs> !!!
===>> All Done!
